370 721
  1 6 7
  1 341 1
  1 342 1
  1 343 6
  2 343 5
  3 341 6
  3 343 1
  4 342 6
  4 343 1
  5 10 7
  5 336 1
  5 337 1
  5 338 5
  6 338 6
  6 339 1
  6 340 1
  7 336 5
  7 338 1
  7 339 6
  8 337 5
  8 338 1
  8 340 6
  9 14 7
  9 331 1
  9 332 1
  9 333 6
  10 333 5
  10 334 1
  10 335 1
  11 331 6
  11 333 1
  11 334 5
  12 332 6
  12 333 1
  12 335 5
  13 18 7
  13 326 1
  13 327 1
  13 328 5
  14 328 6
  14 329 1
  14 330 1
  15 326 5
  15 328 1
  15 329 6
  16 327 5
  16 328 1
  16 330 6
  17 22 7
  17 318 1
  17 320 1
  17 321 1
  18 323 5
  18 324 1
  18 325 1
  19 319 5
  19 323 1
  19 324 5
  20 322 5
  20 323 1
  20 325 5
  21 26 7
  21 313 1
  21 314 1
  21 315 5
  22 315 6
  22 316 1
  22 317 1
  23 313 5
  23 315 1
  23 316 6
  24 314 5
  24 315 1
  24 317 6
  25 296 6
  25 303 1
  25 305 1
  25 307 6
  26 307 5
  26 311 1
  26 312 1
  27 303 6
  27 307 1
  27 311 5
  28 305 6
  28 307 1
  28 312 5
  29 281 4
  29 283 2
  29 290 5
  29 300 10
  30 298 4
  30 300 2
  31 213 4
  31 224 2
  31 245 5
  31 265 10
  32 250 6
  32 265 2
  32 282 5
  33 154 1
  33 160 2
  33 200 10
  34 36 3
  34 192 2
  34 215 1
  35 154 3
  35 181 10
  36 181 2
  37 38 1
  37 58 4
  37 299 1
  37 302 2
  38 56 4
  38 304 2
  39 297 16
  39 310 1
  40 283 5
  40 284 4
  40 290 2
  40 295 4
  41 42 10
  41 290 4
  41 295 2
  41 301 2
  42 306 4
  42 308 2
  43 44 1
  43 249 4
  43 255 3
  43 270 2
  44 254 4
  44 269 1
  44 272 2
  45 274 10
  45 288 1
  45 291 1
  45 294 2
  46 163 16
  46 224 5
  46 245 2
  46 255 4
  47 48 10
  47 245 4
  47 255 2
  47 270 3
  48 279 4
  48 285 2
  48 286 3
  49 50 1
  49 156 5
  49 174 1
  49 188 2
  50 159 5
  50 187 1
  50 191 2
  51 199 10
  51 241 1
  51 250 2
  51 265 6
  52 144 5
  52 157 1
  52 160 2
  53 64 5
  53 157 1
  53 165 1
  53 169 2
  54 175 10
  54 225 1
  54 235 2
  54 238 3
  55 266 3
  55 271 1
  55 276 1
  55 277 1
  56 58 1
  56 277 12
  56 297 1
  57 58 12
  57 59 1
  57 271 1
  57 277 1
  58 60 1
  59 60 12
  59 267 2
  59 268 1
  60 287 2
  60 299 4
  61 118 3
  61 121 1
  61 144 12
  62 64 12
  62 71 3
  62 121 1
  62 125 1
  63 64 1
  63 121 12
  63 144 1
  63 157 5
  64 151 1
  65 229 1
  65 251 6
  66 251 9
  66 275 1
  67 229 6
  67 236 4
  67 251 1
  67 275 9
  68 251 4
  69 82 1
  69 110 1
  69 112 6
  70 83 1
  70 111 1
  70 115 6
  71 72 1
  71 95 8
  71 119 1
  72 79 2
  72 96 8
  72 125 3
  73 74 1
  73 98 8
  73 124 1
  73 132 3
  74 99 8
  74 131 2
  74 135 3
  75 77 6
  75 84 1
  75 91 1
  76 85 1
  76 114 6
  76 117 2
  76 120 4
  77 82 1
  78 83 1
  78 92 6
  78 110 2
  79 116 8
  79 124 1
  79 126 3
  80 84 1
  80 94 1
  80 118 8
  81 85 1
  81 99 2
  81 123 4
  81 131 8
  82 91 6
  83 93 6
  84 100 1
  85 106 2
  85 122 4
  86 107 6
  87 107 5
  87 108 1
  87 109 1
  87 170 41
  88 107 1
  88 108 5
  89 107 1
  89 109 5
  90 322 198
  91 100 1
  91 112 1
  92 93 1
  92 103 1
  92 113 2
  93 104 1
  93 115 1
  94 95 1
  94 100 1
  94 119 8
  95 96 1
  95 101 1
  96 102 1
  96 116 2
  97 98 1
  97 104 1
  97 116 1
  97 124 8
  98 99 1
  98 105 1
  99 106 1
  100 101 1
  101 102 1
  101 112 1
  102 103 2
  102 113 1
  103 104 1
  103 116 1
  104 105 1
  105 106 1
  105 115 1
  106 117 1
  108 167 41
  109 176 41
  110 113 6
  111 114 2
  111 117 6
  112 113 1
  114 161 29
  115 117 1
  118 119 1
  119 121 3
  120 122 1
  120 127 5
  122 123 1
  122 130 5
  123 134 5
  123 141 8
  124 128 3
  125 126 2
  125 151 12
  126 128 1
  126 129 1
  127 130 1
  127 138 4
  128 132 1
  128 133 1
  129 133 1
  129 155 11
  130 134 1
  130 140 4
  131 139 3
  131 141 4
  132 135 1
  132 136 1
  133 136 1
  133 156 11
  134 143 4
  134 153 8
  135 137 1
  135 139 2
  136 137 1
  136 159 11
  137 142 2
  137 164 11
  138 140 1
  138 145 3
  139 142 1
  139 148 4
  140 143 1
  140 147 3
  141 148 3
  141 153 5
  142 163 9
  142 173 11
  143 150 3
  143 162 8
  145 146 1
  145 147 1
  146 149 1
  146 168 7
  147 149 1
  147 150 1
  148 158 5
  148 224 17
  149 152 1
  149 172 7
  150 152 1
  150 179 8
  151 155 2
  151 165 5
  152 178 7
  152 183 8
  153 158 3
  153 162 4
  154 192 10
  155 156 1
  155 174 5
  156 159 1
  157 166 2
  158 163 1
  158 180 4
  159 164 1
  160 166 1
  160 214 10
  161 167 1
  161 189 6
  162 179 3
  162 180 3
  163 184 4
  164 173 2
  164 187 5
  165 174 2
  165 175 2
  166 169 1
  166 220 10
  167 170 1
  167 171 1
  168 172 1
  168 189 5
  169 175 1
  169 225 10
  170 176 1
  170 177 1
  171 177 1
  171 194 5
  172 178 1
  172 195 5
  173 198 5
  173 240 14
  174 185 2
  175 185 2
  176 182 1
  177 182 1
  177 202 5
  178 204 5
  178 223 8
  179 183 1
  179 190 3
  180 184 1
  180 190 3
  181 192 3
  182 186 1
  182 208 5
  183 196 3
  183 223 7
  184 197 3
  184 240 12
  185 188 1
  186 193 2
  186 216 5
  187 198 2
  187 199 2
  188 191 1
  188 238 10
  189 194 1
  189 195 1
  190 196 1
  190 197 1
  191 199 1
  191 241 10
  192 200 1
  193 201 1
  193 227 5
  194 202 1
  194 203 1
  195 203 1
  195 204 1
  196 205 1
  196 206 1
  197 206 1
  197 249 12
  198 213 2
  198 224 4
  199 213 2
  200 214 2
  200 215 2
  201 207 1
  201 232 6
  202 208 1
  202 209 1
  203 209 1
  203 210 1
  204 210 1
  204 239 8
  205 211 1
  205 212 1
  206 212 1
  206 254 12
  207 229 4
  207 236 6
  208 216 1
  208 217 1
  209 217 1
  209 218 1
  210 218 1
  210 242 8
  211 219 1
  211 278 19
  212 237 6
  212 258 12
  214 220 1
  214 226 2
  215 226 2
  216 221 1
  216 227 2
  217 221 1
  217 222 1
  218 222 1
  218 244 8
  219 234 4
  219 281 19
  220 225 1
  221 228 1
  221 230 2
  222 228 1
  222 247 8
  223 234 3
  223 239 5
  225 231 2
  226 231 2
  227 230 1
  228 233 2
  228 263 11
  230 232 1
  230 233 1
  231 235 1
  232 236 1
  232 262 9
  233 259 8
  234 237 1
  234 248 5
  235 243 3
  236 266 9
  237 253 5
  237 273 12
  238 241 1
  238 243 2
  239 242 1
  239 248 3
  240 249 3
  240 255 4
  241 246 2
  242 244 1
  242 252 3
  243 246 1
  244 247 1
  244 256 3
  245 279 10
  246 250 1
  247 259 3
  247 260 3
  248 252 1
  248 253 1
  249 254 1
  252 256 1
  252 257 1
  253 257 1
  253 284 12
  254 258 1
  256 260 1
  256 261 1
  257 261 1
  258 269 4
  258 273 6
  259 262 1
  259 268 3
  260 263 1
  260 264 1
  261 264 1
  262 266 1
  262 271 3
  263 267 1
  263 268 2
  264 267 1
  265 279 5
  266 275 4
  267 287 12
  268 271 1
  269 274 2
  269 283 6
  270 272 1
  270 286 10
  272 274 1
  272 288 10
  273 283 4
  273 284 5
  274 278 1
  275 276 6
  276 280 1
  277 280 1
  278 281 1
  278 291 10
  279 282 2
  280 297 12
  281 293 10
  282 285 4
  284 287 4
  285 289 3
  286 288 1
  286 289 2
  287 295 4
  288 292 2
  289 292 1
  290 306 10
  291 293 1
  291 296 2
  292 294 1
  293 298 2
  293 300 4
  294 296 1
  294 303 6
  295 299 2
  296 298 1
  298 305 6
  299 301 2
  300 306 5
  301 302 1
  301 308 10
  302 304 1
  302 309 10
  304 310 10
  308 309 1
  309 310 1
  311 313 7
  312 314 7
  316 318 7
  317 320 7
  318 319 1
  319 321 1
  320 322 1
  321 322 1
  321 323 5
  324 326 7
  325 327 7
  329 331 7
  330 332 7
  334 336 7
  335 337 7
  339 341 7
  340 342 7
  1 344 100000
  2 344 100000
  3 344 100000
  4 344 100000
  5 345 100000
  6 345 100000
  7 345 100000
  8 345 100000
  9 346 100000
  10 346 100000
  11 346 100000
  12 346 100000
  13 347 100000
  14 347 100000
  15 347 100000
  16 347 100000
  17 348 100000
  18 348 100000
  19 348 100000
  20 348 100000
  21 349 100000
  22 349 100000
  23 349 100000
  24 349 100000
  25 350 100000
  26 350 100000
  27 350 100000
  28 350 100000
  29 351 100000
  30 351 100000
  31 352 100000
  32 352 100000
  33 353 100000
  34 353 100000
  35 354 100000
  36 354 100000
  37 355 100000
  38 355 100000
  39 355 100000
  40 356 100000
  41 356 100000
  42 356 100000
  43 357 100000
  44 357 100000
  45 357 100000
  46 358 100000
  47 358 100000
  48 358 100000
  49 359 100000
  50 359 100000
  51 359 100000
  52 360 100000
  53 360 100000
  54 360 100000
  55 361 100000
  56 361 100000
  57 362 100000
  58 362 100000
  59 363 100000
  60 363 100000
  61 364 100000
  62 364 100000
  63 364 100000
  64 364 100000
  65 365 100000
  66 365 100000
  67 365 100000
  68 365 100000
  69 366 100000
  70 366 100000
  71 366 100000
  72 366 100000
  73 366 100000
  74 366 100000
  75 366 100000
  76 366 100000
  77 367 100000
  78 367 100000
  79 367 100000
  80 367 100000
  81 367 100000
  82 368 100000
  83 368 100000
  84 368 100000
  85 368 100000
  86 369 100000
  87 369 100000
  88 369 100000
  89 369 100000
  90 370 100000
  91 366 100000
  92 366 100000
  93 366 100000
  94 367 100000
  95 367 100000
  96 367 100000
  97 367 100000
  98 367 100000
  99 367 100000
  100 368 100000
  101 368 100000
  102 368 100000
  103 368 100000
  104 368 100000
  105 368 100000
  106 368 100000

27

 344
 345
 346
 347
 348
 349
 350
 351
 352
 353
 354
 355
 356
 357
 358
 359
 360
 361
 362
 363
 364
 365
 366
 367
 368
 369
 370
 
27

 344
 345
 346
 347
 348
 349
 350
 351
 352
 353
 354
 355
 356
 357
 358
 359
 360
 361
 362
 363
 364
 365
 366
 367
 368
 369
 370

